NAME : LPS-n10-m82
COMMENT : (Lartu-Peter-Santi Plot, instance 2882 out of 39200. 10 customers.)
TYPE : CVRP
DIMENSION : 10
EDGE_WEIGHT_TYPE : EUC_2D
CAPACITY : 141
NODE_COORD_SECTION
 1 32 44
 2 7 28
 3 29 82
 4 42 94
 5 40 43
 6 90 73
 7 92 44
 8 69 79
 9 22 81
 10 38 27
DEMAND_SECTION
1 0
2 13
3 56
4 125
5 78
6 21
7 125
8 7
9 33
10 19
DEPOT_SECTION
 1
 -1
EOF
